COLUMNS

passenger_count
pickup_ID
dropoff_ID
request_time_sec
pickup_district
dropoff_district
LDuals
IDuals
vehicle_ID
pick_position
drop_position

REQUESTS_INFO
2      1107      1021      30583     291       291       251       251       5         1         2         
3      927       837       30682     290       290       240       240       9         1         2         
1      499       249       30662     52        266       139       139       21        1         3         
2      857       676       30614     290       189       245       245       22        1         3         
3      837       885       30683     290       290       193       193       30        1         2         
3      950       782       30591     290       291       319       319       49        1         2         
1      816       738       30613     290       189       271       271       54        1         3         
3      1002      1088      30602     291       291       261       261       56        1         2         
1      937       651       30667     291       189       170       170       107       1         2         
1      924       628       30615     290       189       228       228       111       1         3         
3      893       673       30661     291       189       206       206       121       1         2         
3      813       767       30672     290       290       211       211       122       1         2         
3      939       630       30684     291       189       253       253       123       1         2         
1      745       675       30686     290       189       104       104       134       1         2         
2      812       923       30638     290       290       215       215       173       1         2         
1      812       970       30680     290       290       156       156       192       1         4         
3      929       697       30649     290       189       283       283       194       1         2         
1      838       649       30527     290       189       346       346       203       1         2         
1      1107      959       30603     291       291       215       215       209       1         2         
1      980       1127      30637     291       291       210       210       212       1         3         
1      293       171       30667     87        286       108       108       220       1         4         
3      418       711       30675     168       131       112       112       246       1         3         
1      771       748       30668     290       290       182       182       271       1         2         
3      915       1088      30683     291       291       179       179       280       1         3         
3      1047      1263      30584     291       192       283       283       320       1         2         
1      841       749       30573     290       290       358       358       350       1         2         
3      888       649       30611     290       189       326       326       363       1         2         
1      947       675       30646     290       189       198       198       377       1         4         
1      947       674       30673     290       189       227       227       377       2         5         
2      795       397       30649     290       168       226       226       387       1         3         
3      951       1291      30580     290       129       356       356       413       1         2         
2      256       506       30671     87        189       124       124       417       1         3         
1      700       760       30676     290       291       119       119       419       1         3         
2      802       559       30684     291       189       150       150       450       1         2         
2      886       925       30588     290       290       348       348       463       1         2         
1      927       700       30301     290       290       619       619       492       1         2         
3      842       629       30538     290       189       400       400       499       1         2         
3      886       925       30588     290       290       350       350       508       1         2         
1      664       10        30646     131       98        161       161       514       1         2         
3      936       742       30581     291       290       318       318       519       1         2         
2      665       1065      30632     131       291       176       176       546       1         2         
1      1174      1068      30617     129       291       162       162       570       1         2         
1      702       79        30662     290       98        127       127       598       1         4         
1      906       1128      30467     290       291       446       446       616       1         4         
4      980       1048      30489     291       291       403       403       636       1         2         
1      814       604       30660     290       189       155       155       638       1         3         
1      728       862       30572     290       290       276       276       698       1         2         
1      889       1011      30278     290       84        634       634       711       1         2         
3      936       742       30581     291       290       318       318       722       1         2         
1      936       991       30664     291       290       171       171       735       1         3         
3      893       673       30661     291       189       206       206       806       1         3         
1      925       548       30636     290       52        274       274       815       1         2         
2      463       498       30687     168       52        101       101       823       1         3         
1      748       577       30621     290       189       232       232       835       1         3         
1      1012      604       30502     84        189       385       385       838       1         2         
1      772       790       30651     290       290       213       213       852       1         2         
3      794       791       30615     290       290       268       268       864       1         2         
1      314       396       30655     119       119       150       150       956       1         2         
1      864       1218      30645     290       84        175       175       979       1         4         
3      702       651       30649     290       189       186       186       980       1         2         
3      850       781       30668     291       291       196       196       997       1         2         
3      802       559       30684     291       189       150       150       1011      1         2         
1      772       580       30687     290       189       177       177       1012      1         3         
1      771       737       30686     290       189       177       177       1012      2         4         
3      950       607       30662     290       189       248       248       1035      1         2         
1      903       671       30609     290       280       288       288       1091      1         2         
1      1023      720       30640     291       290       193       193       1094      1         4         
2      1025      626       30668     291       189       127       127       1118      1         4         
2      837       885       30683     290       290       193       193       1133      1         3         
1      771       863       30481     290       290       382       382       1145      1         2         
1      804       718       30665     291       189       159       159       1207      1         2         
1      928       925       30628     290       290       284       284       1233      1         2         
3      842       484       30163     290       189       775       775       1240      1         2         
1      795       395       30681     290       100       145       145       1242      1         5         
3      950       607       30662     290       189       248       248       1243      1         2         
1      1127      1045      30643     291       291       195       195       1253      1         2         
1      960       836       30636     291       290       191       191       1264      1         3         
3      816       969       30616     290       290       268       268       1267      1         2         
1      1045      937       30672     291       291       154       154       1271      1         2         
1      1108      1170      30667     291       291       158       158       1294      1         2         
2      871       760       30621     291       291       243       243       1306      1         2         
1      888       484       30612     290       189       299       299       1307      1         3         
1      679       651       30617     290       189       197       197       1324      1         3         
2      925       1026      30629     290       291       281       281       1359      1         3         
1      923       722       30660     290       290       247       247       1376      1         3         
1      666       597       30656     131       131       155       155       1388      1         2         
2      842       629       30538     290       189       388       388       1389      1         4         
2      842       559       30568     290       189       370       370       1389      2         3         
1      749       189       30679     290       286       167       167       1398      1         3         
3      386       116       30687     299       9         142       142       1440      1         2         
1      510       355       30690     199       119       0         0         0         0         0         
3      781       1021      30690     291       291       0         0         0         0         0         
2      527       416       30690     52        100       0         0         0         0         0         
2      873       937       30690     291       291       0         0         0         0         0         
1      309       717       30690     127       189       0         0         0         0         0         
1      1001      649       30690     291       189       0         0         0         0         0         
2      604       421       30690     189       168       0         0         0         0         0         
1      702       990       30691     290       290       0         0         0         0         0         
1      534       728       30691     199       290       0         0         0         0         0         
1      950       905       30691     290       290       0         0         0         0         0         
1      577       288       30691     189       127       0         0         0         0         0         
1      549       694       30692     52        189       0         0         0         0         0         
1      723       627       30692     290       189       0         0         0         0         0         
4      632       923       30692     189       290       0         0         0         0         0         
1      195       534       30692     207       199       0         0         0         0         0         
2      557       372       30692     189       119       0         0         0         0         0         
3      744       604       30692     290       189       0         0         0         0         0         
3      744       604       30692     290       189       0         0         0         0         0         
3      557       372       30692     189       119       0         0         0         0         0         
1      1355      1285      30692     129       129       0         0         0         0         0         
1      680       728       30693     290       290       0         0         0         0         0         
2      805       1023      30693     291       291       0         0         0         0         0         
2      749       698       30693     290       189       0         0         0         0         0         
1      970       578       30693     290       189       0         0         0         0         0         
1      647       557       30693     280       189       0         0         0         0         0         
4      1152      825       30693     291       291       0         0         0         0         0         
2      793       748       30694     290       290       0         0         0         0         0         
1      1046      1003      30694     291       291       0         0         0         0         0         
1      332       604       30694     87        189       0         0         0         0         0         
2      837       601       30695     290       189       0         0         0         0         0         
3      837       601       30695     290       189       0         0         0         0         0         
1      720       770       30695     290       290       0         0         0         0         0         
1      34        722       30695     98        290       0         0         0         0         0         
1      1460      1371      30695     129       129       0         0         0         0         0         
3      624       647       30695     189       280       0         0         0         0         0         
2      624       647       30695     189       280       0         0         0         0         0         
1      582       555       30696     189       199       0         0         0         0         0         
1      915       675       30696     291       189       0         0         0         0         0         
1      722       719       30696     290       189       0         0         0         0         0         
1      188       229       30696     286       266       0         0         0         0         0         
2      208       325       30696     286       299       0         0         0         0         0         
1      511       694       30696     199       189       0         0         0         0         0         
4      716       533       30696     189       199       0         0         0         0         0         
3      439       393       30697     189       52        0         0         0         0         0         
3      439       393       30697     189       52        0         0         0         0         0         
1      1026      651       30697     291       189       0         0         0         0         0         
1      739       600       30697     189       280       0         0         0         0         0         
1      369       671       30697     52        280       0         0         0         0         0         
1      527       484       30697     52        189       0         0         0         0         0         
1      21        578       30697     98        189       0         0         0         0         0         
2      575       504       30697     189       52        0         0         0         0         0         
1      560       698       30698     189       189       0         0         0         0         0         
1      737       581       30698     189       189       0         0         0         0         0         
1      631       533       30698     189       199       0         0         0         0         0         
1      1132      1048      30698     291       291       0         0         0         0         0         
1      549       616       30699     52        131       0         0         0         0         0         
1      629       1001      30699     189       291       0         0         0         0         0         
1      582       509       30699     189       199       0         0         0         0         0         
2      191       626       30699     266       189       0         0         0         0         0         
1      801       1530      30699     291       296       0         0         0         0         0         
1      863       748       30699     290       290       0         0         0         0         0         
1      969       842       30699     290       290       0         0         0         0         0         
1      735       526       30700     131       52        0         0         0         0         0         
2      603       695       30700     189       189       0         0         0         0         0         
2      649       580       30700     189       189       0         0         0         0         0         
1      267       757       30700     266       131       0         0         0         0         0         
3      417       315       30700     100       277       0         0         0         0         0         
3      417       315       30700     100       277       0         0         0         0         0         
1      794       134       30701     290       9         0         0         0         0         0         
1      839       859       30701     290       290       0         0         0         0         0         
1      46        505       30701     98        52        0         0         0         0         0         
3      35        116       30702     98        9         0         0         0         0         0         
1      725       693       30702     290       280       0         0         0         0         0         
1      665       780       30702     131       291       0         0         0         0         0         
1      699       782       30702     290       291       0         0         0         0         0         
4      621       134       30702     280       9         0         0         0         0         0         
1      794       743       30702     290       290       0         0         0         0         0         
2      35        116       30702     98        9         0         0         0         0         0         
1      1003      669       30703     291       280       0         0         0         0         0         
1      983       851       30703     291       291       0         0         0         0         0         
1      759       673       30703     131       189       0         0         0         0         0         
1      210       287       30703     266       299       0         0         0         0         0         
3      325       189       30704     299       286       0         0         0         0         0         
3      325       189       30704     299       286       0         0         0         0         0         
1      117       619       30704     286       131       0         0         0         0         0         
2      1149      79        30704     291       98        0         0         0         0         0         
1      747       532       30704     290       199       0         0         0         0         0         
1      1091      850       30704     291       291       0         0         0         0         0         
1      882       959       30704     290       291       0         0         0         0         0         
3      760       648       30705     291       189       0         0         0         0         0         
1      356       578       30705     119       189       0         0         0         0         0         
1      349       369       30705     127       52        0         0         0         0         0         
1      947       1011      30705     290       84        0         0         0         0         0         
1      236       629       30705     87        189       0         0         0         0         0         
3      760       648       30705     291       189       0         0         0         0         0         
3      719       521       30706     189       52        0         0         0         0         0         
2      719       521       30706     189       52        0         0         0         0         0         
4      701       559       30706     290       189       0         0         0         0         0         
1      726       35        30706     290       98        0         0         0         0         0         
1      201       36        30706     87        98        0         0         0         0         0         
1      136       397       30707     286       168       0         0         0         0         0         
1      479       373       30707     52        119       0         0         0         0         0         
1      579       571       30707     189       52        0         0         0         0         0         
1      249       604       30707     266       189       0         0         0         0         0         
1      528       416       30707     52        100       0         0         0         0         0         
1      950       646       30708     290       280       0         0         0         0         0         
1      441       534       30708     168       199       0         0         0         0         0         
1      991       1225      30708     290       192       0         0         0         0         0         
1      558       745       30709     189       290       0         0         0         0         0         
3      1090      1264      30709     291       192       0         0         0         0         0         
3      375       10        30709     119       98        0         0         0         0         0         
3      375       10        30709     119       98        0         0         0         0         0         
1      533       62        30709     199       98        0         0         0         0         0         
1      621       670       30709     280       280       0         0         0         0         0         
1      372       674       30710     119       189       0         0         0         0         0         
1      527       1226      30710     52        192       0         0         0         0         0         
1      458       62        30710     52        98        0         0         0         0         0         
1      584       605       30710     189       189       0         0         0         0         0         
1      1171      905       30711     192       290       0         0         0         0         0         
3      771       675       30711     290       189       0         0         0         0         0         
1      549       583       30711     52        189       0         0         0         0         0         
1      1475      1245      30711     296       192       0         0         0         0         0         
1      717       616       30711     189       131       0         0         0         0         0         
2      771       675       30711     290       189       0         0         0         0         0         
1      419       531       30712     168       189       0         0         0         0         0         
1      331       247       30712     127       266       0         0         0         0         0         
1      1187      1188      30712     291       192       0         0         0         0         0         
1      937       1225      30712     291       192       0         0         0         0         0         
1      756       461       30712     131       189       0         0         0         0         0         
1      229       351       30713     266       52        0         0         0         0         0         
1      534       62        30713     199       98        0         0         0         0         0         
1      354       268       30713     119       299       0         0         0         0         0         
1      654       535       30713     189       189       0         0         0         0         0         
2      312       439       30713     87        189       0         0         0         0         0         
1      35        421       30713     98        168       0         0         0         0         0         
1      770       960       30714     290       291       0         0         0         0         0         
1      485       575       30714     189       189       0         0         0         0         0         
2      791       604       30714     290       189       0         0         0         0         0         
1      859       969       30714     290       290       0         0         0         0         0         
1      1002      1085      30714     291       291       0         0         0         0         0         
3      791       604       30714     290       189       0         0         0         0         0         
1      700       670       30714     290       280       0         0         0         0         0         
1      527       716       30714     52        189       0         0         0         0         0         
1      621       738       30714     280       189       0         0         0         0         0         
1      191       369       30714     266       52        0         0         0         0         0         
1      442       604       30715     168       189       0         0         0         0         0         
1      479       291       30715     52        87        0         0         0         0         0         
2      1115      1160      30715     84        84        0         0         0         0         0         
3      325       368       30715     299       299       0         0         0         0         0         
1      413       702       30715     52        290       0         0         0         0         0         
1      436       549       30716     100       52        0         0         0         0         0         
1      137       210       30716     286       266       0         0         0         0         0         
1      594       758       30716     131       131       0         0         0         0         0         
1      948       905       30716     290       290       0         0         0         0         0         
1      748       699       30716     290       290       0         0         0         0         0         
1      771       881       30716     290       290       0         0         0         0         0         
3      1002      1265      30717     291       192       0         0         0         0         0         
2      1002      1265      30717     291       192       0         0         0         0         0         
1      679       720       30717     290       290       0         0         0         0         0         
1      904       791       30717     290       290       0         0         0         0         0         
1      906       654       30717     290       189       0         0         0         0         0         
1      606       813       30717     189       290       0         0         0         0         0         
1      1109      734       30717     291       131       0         0         0         0         0         
1      601       1207      30717     189       192       0         0         0         0         0         
1      533       373       30717     199       119       0         0         0         0         0         
1      771       812       30717     290       290       0         0         0         0         0         
1      1010      652       30717     290       189       0         0         0         0         0         
1      460       459       30717     189       189       0         0         0         0         0         
1      605       583       30718     189       189       0         0         0         0         0         
1      873       697       30718     291       189       0         0         0         0         0         
1      60        556       30718     9         199       0         0         0         0         0         
3      1401      116       30719     129       9         0         0         0         0         0         
1      443       699       30719     168       290       0         0         0         0         0         
2      464       676       30719     168       189       0         0         0         0         0         
1      364       287       30719     299       299       0         0         0         0         0         
1      374       532       30719     119       199       0         0         0         0         0         
2      970       675       30719     290       189       0         0         0         0         0         
1      679       924       30719     290       290       0         0         0         0         0         
3      791       81        30719     290       98        0         0         0         0         0         
3      1401      116       30719     129       9         0         0         0         0         0         
